50

100 8 303
99 27 417
95 34 306
94 28 435
87 22 307
85 11 272
85 29 365
83 29 402
81 27 354
81 10 356
80 28 244
80 19 278
77 30 418
76 30 398
75 9 257
74 22 302
73 12 390
73 23 317
72 13 405
66 13 367
63 3 248
60 4 353
52 14 319
50 4 411
47 17 436
45 1 290
44 9 311
43 2 310
39 13 255
39 4 439
38 17 408
38 2 377
35 6 342
34 16 448
33 2 157
32 15 434
25 4 91
25 4 166
23 3 422
20 1 230
17 7 104
15 3 444
15 1 201
14 4 428
12 6 379
11 2 136
10 2 270
10 2 107
8 3 206
8 4 379
